language ESSENCE' 1.0

letting jobs = 102
letting horizon = 795
letting resourcesRenew = 2
letting resourcesNonrenew = 2
letting resourceLimits = [45, 47, 469, 480]
letting successors = [[2, 3, 4, 5, 6, 7, 8, 9, 11, 12, 13, 14, 15, 16, 18, 19, 21, 22, 26, 33], [38, 31, 29, 23, 20, 17, 10], [51, 50, 49, 46, 42, 41, 38, 36, 32, 29, 27, 25, 17], [56, 52, 49, 42, 41, 38, 36, 35, 31, 30, 28, 27, 20], [58, 54, 51, 50, 49, 47, 44, 41, 38, 36, 35, 31, 29, 28, 27], [58, 52, 50, 49, 46, 42, 41, 35, 34, 32, 28, 27, 24], [50, 46, 41, 38, 32, 27, 17], [56, 55, 54, 52, 49, 47, 44, 39, 38, 20], [83, 68, 56, 54, 52, 51, 48, 47, 46, 44, 41, 40, 27], [83, 68, 61, 56, 54, 52, 50, 47, 46, 45, 44, 41, 27], [54, 51, 49, 46, 43, 28, 25], [56, 52, 46, 43, 37, 23], [83, 65, 64, 63, 61, 60, 58, 55, 54, 53, 52, 49, 48, 47, 44, 40, 39], [61, 58, 54, 53, 52, 49, 48, 47, 40, 39, 28], [68, 54, 48, 46, 43, 41, 32, 28], [65, 61, 58, 54, 52, 49, 47, 44, 43, 39, 31], [68, 56, 54, 52, 48, 47, 40, 35, 28], [65, 54, 52, 50, 49, 48, 42, 39, 32], [68, 56, 54, 53, 52, 38, 36, 28], [68, 60, 58, 51, 50, 48, 43, 32], [68, 62, 53, 51, 47, 44, 28], [64, 61, 53, 52, 46, 45, 39, 36], [62, 54, 49, 47, 40, 28], [74, 68, 66, 65, 64, 63, 60, 56, 54, 48, 47, 38], [83, 73, 68, 65, 63, 61, 57, 53, 52, 47, 44, 40], [65, 64, 62, 61, 60, 58, 52, 43, 40], [66, 64, 63, 62, 60, 59, 55, 43, 39], [83, 78, 74, 73, 65, 64, 63, 60, 59, 57, 55, 45], [83, 77, 59, 57, 52, 43, 40], [83, 78, 76, 67, 64, 63, 61, 59, 54, 53, 48], [83, 82, 76, 67, 66, 63, 60, 59, 57, 46], [83, 77, 73, 64, 63, 61, 59, 40], [83, 77, 73, 64, 61, 53, 41], [83, 78, 76, 73, 70, 67, 66, 64, 63, 59, 56], [74, 72, 69, 63, 62, 61, 60, 59, 45], [83, 78, 63, 60, 59, 57, 48], [101, 99, 98, 83, 82, 78, 76, 73, 72, 70, 69, 67, 62, 59], [101, 100, 99, 83, 82, 78, 77, 73, 70, 67, 62, 57], [101, 100, 99, 96, 92, 82, 79, 78, 77, 76, 75, 74, 70, 67, 57], [92, 74, 72, 69, 45], [101, 99, 98, 95, 93, 81, 80, 78, 76, 72, 70, 69, 67, 65, 63], [98, 94, 83, 82, 74, 73, 67, 53], [98, 94, 82, 76, 73, 67, 53], [101, 98, 96, 92, 82, 81, 80, 79, 77, 76, 75, 72, 71, 70, 69], [101, 100, 99, 97, 95, 82, 81, 80, 79, 76, 75, 67, 66], [100, 99, 98, 95, 81, 80, 77, 73, 72, 71, 62], [98, 93, 92, 82, 78, 76, 72, 71, 59], [101, 100, 99, 98, 97, 96, 95, 89, 82, 77, 69, 62], [99, 97, 68, 67, 57], [98, 96, 95, 92, 82, 80, 79, 77, 76, 74, 72], [101, 95, 86, 81, 80, 79, 73, 64], [99, 97, 96, 95, 93, 92, 82, 80, 79, 78, 76, 75, 69], [100, 99, 96, 95, 93, 92, 91, 81, 79, 75, 70, 69], [99, 98, 95, 94, 93, 90, 89, 85, 82, 75, 73, 71], [100, 99, 98, 95, 93, 86, 85, 81, 80, 71, 69], [101, 100, 99, 97, 93, 89, 85, 82, 71, 69], [98, 95, 93, 86, 85, 81, 80, 71, 69], [100, 96, 95, 94, 92, 89, 85, 82, 77, 75], [96, 95, 91, 90, 87, 81, 80, 79, 75], [101, 98, 95, 91, 86, 84, 70], [100, 92, 89, 88, 80, 79, 75], [93, 92, 91, 90, 87, 79, 75], [96, 94, 92, 90, 79, 75], [99, 98, 91, 90, 72], [96, 94, 92, 85, 71], [98, 96, 93, 91, 86, 85, 84], [89, 88, 85, 71], [95, 92, 75], [90, 88, 87, 84], [97, 89, 88, 85], [91, 87, 84], [97, 88, 84], [96, 92, 88], [90, 89, 84], [86, 84], [90, 85], [93, 87], [87, 86], [85], [94], [89], [86], [85], [102], [102], [102], [102], [102], [102], [102], [102], [102], [102], [102], [102], [102], [102], [102], [102], [102], [102], []]
letting durations = [[0], [3, 8, 10], [3, 4, 9], [3, 5, 10], [3, 5, 7], [1, 4, 5], [1, 7, 8], [2, 5, 6], [2, 3, 9], [2, 5, 6], [4, 4, 8], [1, 2, 4], [1, 6, 10], [3, 3, 4], [1, 3, 5], [3, 4, 6], [3, 6, 9], [6, 6, 10], [1, 7, 8], [5, 6, 7], [1, 5, 9], [5, 6, 8], [2, 9, 10], [1, 7, 10], [1, 3, 5], [3, 5, 10], [5, 6, 10], [1, 5, 9], [1, 2, 4], [3, 4, 9], [6, 7, 9], [1, 2, 9], [5, 5, 10], [9, 9, 10], [2, 8, 9], [1, 2, 3], [1, 3, 7], [1, 4, 6], [6, 9, 10], [1, 3, 4], [3, 4, 8], [1, 4, 5], [2, 4, 8], [1, 6, 6], [1, 2, 10], [3, 7, 10], [4, 5, 10], [5, 5, 10], [4, 5, 10], [5, 8, 9], [1, 2, 6], [3, 4, 5], [4, 8, 9], [5, 7, 10], [1, 6, 7], [4, 7, 9], [1, 3, 7], [4, 7, 8], [1, 3, 6], [4, 6, 8], [1, 6, 7], [1, 4, 5], [6, 7, 10], [6, 7, 10], [6, 9, 9], [4, 9, 10], [2, 3, 4], [5, 5, 7], [4, 7, 9], [4, 5, 9], [4, 9, 10], [3, 8, 10], [2, 4, 8], [1, 6, 7], [1, 7, 9], [4, 4, 8], [1, 5, 7], [4, 9, 10], [5, 7, 8], [7, 8, 10], [1, 6, 7], [5, 7, 10], [6, 8, 8], [6, 9, 10], [5, 6, 10], [1, 4, 6], [1, 3, 6], [6, 7, 8], [6, 7, 10], [1, 3, 5], [6, 8, 9], [1, 1, 3], [1, 2, 5], [6, 6, 7], [5, 8, 9], [7, 8, 10], [3, 8, 10], [4, 7, 8], [5, 6, 7], [9, 10, 10], [1, 4, 7], [0]]
letting resourceUsage = [[[0, 0, 0, 0]], [[5, 0, 6, 10], [0, 1, 5, 10], [3, 0, 1, 10]], [[4, 0, 7, 7], [2, 0, 7, 7], [0, 4, 7, 7]], [[0, 3, 7, 7], [3, 0, 7, 7], [0, 2, 5, 7]], [[3, 0, 10, 2], [0, 4, 8, 2], [1, 0, 6, 2]], [[0, 3, 8, 8], [2, 0, 7, 7], [2, 0, 7, 6]], [[0, 4, 7, 7], [2, 0, 7, 5], [0, 4, 6, 5]], [[0, 5, 4, 8], [0, 4, 4, 8], [0, 3, 3, 8]], [[5, 0, 7, 9], [4, 0, 4, 8], [3, 0, 2, 5]], [[5, 0, 5, 7], [0, 3, 3, 6], [3, 0, 3, 6]], [[0, 3, 8, 2], [5, 0, 8, 2], [5, 0, 8, 1]], [[0, 5, 5, 9], [0, 4, 5, 9], [2, 0, 5, 8]], [[0, 5, 9, 8], [0, 4, 9, 8], [2, 0, 8, 8]], [[0, 5, 5, 7], [2, 0, 4, 4], [0, 2, 4, 3]], [[0, 3, 2, 2], [4, 0, 2, 2], [0, 1, 2, 2]], [[0, 3, 7, 7], [0, 3, 7, 6], [0, 2, 5, 6]], [[0, 4, 7, 9], [3, 0, 4, 7], [0, 4, 3, 7]], [[3, 0, 8, 8], [0, 3, 6, 6], [2, 0, 4, 5]], [[5, 0, 5, 8], [0, 3, 5, 5], [1, 0, 5, 3]], [[3, 0, 4, 2], [2, 0, 4, 2], [2, 0, 4, 1]], [[0, 4, 2, 5], [3, 0, 2, 2], [3, 0, 2, 1]], [[2, 0, 2, 6], [2, 0, 1, 4], [0, 1, 1, 3]], [[2, 0, 4, 10], [2, 0, 3, 7], [1, 0, 2, 7]], [[0, 3, 6, 3], [0, 2, 3, 3], [0, 2, 3, 2]], [[0, 4, 5, 7], [3, 0, 5, 6], [2, 0, 5, 6]], [[3, 0, 4, 4], [2, 0, 3, 4], [1, 0, 2, 3]], [[3, 0, 9, 10], [3, 0, 5, 9], [1, 0, 3, 9]], [[0, 5, 2, 8], [0, 4, 2, 4], [4, 0, 2, 2]], [[4, 0, 7, 7], [4, 0, 5, 6], [0, 1, 2, 3]], [[0, 3, 7, 1], [0, 2, 7, 1], [4, 0, 6, 1]], [[0, 5, 7, 9], [0, 3, 5, 5], [2, 0, 3, 4]], [[0, 2, 6, 9], [3, 0, 6, 8], [0, 1, 6, 7]], [[4, 0, 7, 8], [0, 3, 4, 8], [4, 0, 2, 4]], [[0, 2, 3, 10], [3, 0, 3, 9], [3, 0, 3, 8]], [[4, 0, 10, 8], [0, 2, 9, 6], [0, 1, 9, 2]], [[0, 3, 9, 5], [0, 2, 9, 3], [1, 0, 9, 3]], [[1, 0, 3, 7], [1, 0, 1, 5], [1, 0, 1, 3]], [[0, 4, 2, 7], [3, 0, 1, 5], [0, 4, 1, 4]], [[0, 4, 10, 1], [0, 4, 8, 1], [2, 0, 8, 1]], [[0, 2, 4, 3], [3, 0, 2, 1], [0, 2, 2, 1]], [[5, 0, 8, 7], [0, 2, 8, 7], [0, 2, 7, 6]], [[2, 0, 7, 7], [2, 0, 7, 3], [1, 0, 7, 3]], [[1, 0, 7, 6], [1, 0, 6, 6], [1, 0, 5, 6]], [[0, 2, 9, 7], [0, 1, 9, 6], [4, 0, 9, 5]], [[4, 0, 1, 5], [3, 0, 1, 4], [0, 1, 1, 3]], [[3, 0, 5, 1], [0, 3, 4, 1], [3, 0, 4, 1]], [[3, 0, 8, 2], [3, 0, 7, 2], [0, 5, 3, 2]], [[4, 0, 6, 9], [0, 3, 4, 6], [0, 1, 2, 5]], [[5, 0, 3, 2], [4, 0, 2, 2], [2, 0, 1, 2]], [[0, 4, 5, 8], [2, 0, 3, 6], [0, 1, 3, 6]], [[0, 2, 6, 8], [1, 0, 5, 8], [1, 0, 3, 7]], [[5, 0, 5, 6], [0, 2, 3, 3], [2, 0, 1, 2]], [[0, 3, 10, 4], [0, 3, 7, 3], [0, 3, 6, 3]], [[3, 0, 9, 5], [0, 3, 5, 5], [2, 0, 4, 5]], [[0, 4, 10, 4], [2, 0, 8, 3], [2, 0, 8, 2]], [[0, 5, 9, 7], [3, 0, 8, 7], [0, 3, 8, 6]], [[0, 3, 8, 9], [3, 0, 8, 9], [3, 0, 8, 8]], [[3, 0, 7, 6], [0, 4, 6, 6], [0, 4, 5, 6]], [[1, 0, 5, 8], [1, 0, 2, 8], [1, 0, 2, 7]], [[2, 0, 5, 9], [0, 5, 4, 7], [0, 5, 1, 7]], [[3, 0, 3, 5], [2, 0, 3, 4], [1, 0, 3, 4]], [[2, 0, 10, 7], [0, 4, 8, 4], [0, 4, 5, 3]], [[0, 2, 7, 4], [0, 2, 6, 4], [1, 0, 5, 4]], [[0, 4, 8, 7], [0, 4, 5, 6], [4, 0, 2, 5]], [[0, 2, 7, 7], [0, 1, 7, 6], [1, 0, 7, 6]], [[4, 0, 4, 2], [3, 0, 4, 2], [0, 3, 3, 2]], [[0, 2, 7, 10], [0, 2, 6, 7], [0, 2, 6, 3]], [[0, 4, 6, 10], [4, 0, 3, 8], [0, 2, 1, 5]], [[0, 3, 8, 5], [0, 3, 7, 3], [0, 2, 4, 1]], [[5, 0, 9, 7], [5, 0, 9, 6], [0, 2, 9, 6]], [[0, 3, 6, 6], [0, 2, 6, 6], [0, 1, 5, 6]], [[5, 0, 4, 9], [0, 4, 4, 4], [0, 2, 3, 2]], [[0, 4, 1, 9], [2, 0, 1, 8], [0, 3, 1, 6]], [[5, 0, 7, 3], [0, 3, 7, 3], [5, 0, 6, 3]], [[4, 0, 5, 9], [0, 2, 5, 6], [2, 0, 3, 4]], [[0, 4, 2, 8], [3, 0, 2, 3], [0, 2, 2, 3]], [[0, 5, 6, 8], [4, 0, 6, 5], [3, 0, 6, 5]], [[0, 3, 6, 3], [4, 0, 6, 2], [0, 2, 4, 2]], [[0, 4, 6, 3], [5, 0, 6, 3], [5, 0, 6, 2]], [[0, 4, 8, 2], [0, 4, 8, 1], [2, 0, 8, 1]], [[0, 4, 1, 7], [0, 3, 1, 6], [0, 2, 1, 5]], [[0, 2, 10, 7], [0, 1, 7, 5], [0, 1, 6, 4]], [[1, 0, 3, 9], [1, 0, 3, 7], [0, 1, 3, 7]], [[0, 4, 5, 6], [0, 3, 5, 4], [0, 2, 5, 3]], [[0, 3, 2, 4], [0, 3, 2, 3], [0, 3, 1, 4]], [[4, 0, 5, 7], [0, 3, 4, 3], [0, 3, 4, 2]], [[0, 5, 7, 3], [0, 3, 7, 3], [0, 2, 7, 2]], [[0, 1, 5, 5], [0, 1, 5, 3], [0, 1, 2, 3]], [[2, 0, 8, 7], [0, 4, 5, 7], [1, 0, 4, 7]], [[0, 4, 4, 5], [2, 0, 3, 5], [0, 2, 3, 4]], [[0, 5, 9, 6], [2, 0, 6, 4], [0, 3, 5, 3]], [[1, 0, 8, 8], [0, 1, 5, 7], [1, 0, 3, 3]], [[5, 0, 5, 8], [3, 0, 4, 8], [0, 5, 4, 8]], [[5, 0, 8, 6], [0, 4, 8, 6], [5, 0, 8, 3]], [[2, 0, 4, 6], [0, 2, 3, 5], [1, 0, 3, 1]], [[5, 0, 7, 7], [0, 3, 7, 7], [3, 0, 7, 4]], [[2, 0, 8, 5], [0, 1, 4, 4], [1, 0, 3, 1]], [[0, 2, 8, 7], [2, 0, 6, 6], [0, 1, 3, 4]], [[0, 4, 9, 10], [3, 0, 8, 10], [0, 4, 7, 10]], [[0, 2, 4, 5], [0, 2, 3, 5], [1, 0, 3, 5]], [[0, 3, 7, 6], [0, 3, 3, 5], [0, 2, 3, 3]], [[0, 0, 0, 0]]]
